(set-logic QF_LIA)
(declare-fun f0-0 () Int)
(declare-fun c0-0 () Int)
(declare-fun f1-0 () Int)
(declare-fun c1-0 () Int)
(declare-fun f2-0 () Int)
(declare-fun c2-0 () Int)
(declare-fun f3-0 () Int)
(declare-fun c3-0 () Int)
(declare-fun f4-0 () Int)
(declare-fun c4-0 () Int)
(declare-fun f5-0 () Int)
(declare-fun c5-0 () Int)
(declare-fun f6-0 () Int)
(declare-fun c6-0 () Int)
(declare-fun f7-0 () Int)
(declare-fun c7-0 () Int)
(declare-fun f8-0 () Int)
(declare-fun c8-0 () Int)
(declare-fun f9-0 () Int)
(declare-fun c9-0 () Int)
(declare-fun f0-1 () Int)
(declare-fun c0-1 () Int)
(declare-fun f1-1 () Int)
(declare-fun c1-1 () Int)
(declare-fun f2-1 () Int)
(declare-fun c2-1 () Int)
(declare-fun f3-1 () Int)
(declare-fun c3-1 () Int)
(declare-fun f4-1 () Int)
(declare-fun c4-1 () Int)
(declare-fun f5-1 () Int)
(declare-fun c5-1 () Int)
(declare-fun f6-1 () Int)
(declare-fun c6-1 () Int)
(declare-fun f7-1 () Int)
(declare-fun c7-1 () Int)
(declare-fun f8-1 () Int)
(declare-fun c8-1 () Int)
(declare-fun f9-1 () Int)
(declare-fun c9-1 () Int)
(declare-fun f0-2 () Int)
(declare-fun c0-2 () Int)
(declare-fun f1-2 () Int)
(declare-fun c1-2 () Int)
(declare-fun f2-2 () Int)
(declare-fun c2-2 () Int)
(declare-fun f3-2 () Int)
(declare-fun c3-2 () Int)
(declare-fun f4-2 () Int)
(declare-fun c4-2 () Int)
(declare-fun f5-2 () Int)
(declare-fun c5-2 () Int)
(declare-fun f6-2 () Int)
(declare-fun c6-2 () Int)
(declare-fun f7-2 () Int)
(declare-fun c7-2 () Int)
(declare-fun f8-2 () Int)
(declare-fun c8-2 () Int)
(declare-fun f9-2 () Int)
(declare-fun c9-2 () Int)
(declare-fun f0-3 () Int)
(declare-fun c0-3 () Int)
(declare-fun f1-3 () Int)
(declare-fun c1-3 () Int)
(declare-fun f2-3 () Int)
(declare-fun c2-3 () Int)
(declare-fun f3-3 () Int)
(declare-fun c3-3 () Int)
(declare-fun f4-3 () Int)
(declare-fun c4-3 () Int)
(declare-fun f5-3 () Int)
(declare-fun c5-3 () Int)
(declare-fun f6-3 () Int)
(declare-fun c6-3 () Int)
(declare-fun f7-3 () Int)
(declare-fun c7-3 () Int)
(declare-fun f8-3 () Int)
(declare-fun c8-3 () Int)
(declare-fun f9-3 () Int)
(declare-fun c9-3 () Int)
(declare-fun f0-4 () Int)
(declare-fun c0-4 () Int)
(declare-fun f1-4 () Int)
(declare-fun c1-4 () Int)
(declare-fun f2-4 () Int)
(declare-fun c2-4 () Int)
(declare-fun f3-4 () Int)
(declare-fun c3-4 () Int)
(declare-fun f4-4 () Int)
(declare-fun c4-4 () Int)
(declare-fun f5-4 () Int)
(declare-fun c5-4 () Int)
(declare-fun f6-4 () Int)
(declare-fun c6-4 () Int)
(declare-fun f7-4 () Int)
(declare-fun c7-4 () Int)
(declare-fun f8-4 () Int)
(declare-fun c8-4 () Int)
(declare-fun f9-4 () Int)
(declare-fun c9-4 () Int)
(declare-fun f0-5 () Int)
(declare-fun c0-5 () Int)
(declare-fun f1-5 () Int)
(declare-fun c1-5 () Int)
(declare-fun f2-5 () Int)
(declare-fun c2-5 () Int)
(declare-fun f3-5 () Int)
(declare-fun c3-5 () Int)
(declare-fun f4-5 () Int)
(declare-fun c4-5 () Int)
(declare-fun f5-5 () Int)
(declare-fun c5-5 () Int)
(declare-fun f6-5 () Int)
(declare-fun c6-5 () Int)
(declare-fun f7-5 () Int)
(declare-fun c7-5 () Int)
(declare-fun f8-5 () Int)
(declare-fun c8-5 () Int)
(declare-fun f9-5 () Int)
(declare-fun c9-5 () Int)
(declare-fun f0-6 () Int)
(declare-fun c0-6 () Int)
(declare-fun f1-6 () Int)
(declare-fun c1-6 () Int)
(declare-fun f2-6 () Int)
(declare-fun c2-6 () Int)
(declare-fun f3-6 () Int)
(declare-fun c3-6 () Int)
(declare-fun f4-6 () Int)
(declare-fun c4-6 () Int)
(declare-fun f5-6 () Int)
(declare-fun c5-6 () Int)
(declare-fun f6-6 () Int)
(declare-fun c6-6 () Int)
(declare-fun f7-6 () Int)
(declare-fun c7-6 () Int)
(declare-fun f8-6 () Int)
(declare-fun c8-6 () Int)
(declare-fun f9-6 () Int)
(declare-fun c9-6 () Int)
(declare-fun f0-7 () Int)
(declare-fun c0-7 () Int)
(declare-fun f1-7 () Int)
(declare-fun c1-7 () Int)
(declare-fun f2-7 () Int)
(declare-fun c2-7 () Int)
(declare-fun f3-7 () Int)
(declare-fun c3-7 () Int)
(declare-fun f4-7 () Int)
(declare-fun c4-7 () Int)
(declare-fun f5-7 () Int)
(declare-fun c5-7 () Int)
(declare-fun f6-7 () Int)
(declare-fun c6-7 () Int)
(declare-fun f7-7 () Int)
(declare-fun c7-7 () Int)
(declare-fun f8-7 () Int)
(declare-fun c8-7 () Int)
(declare-fun f9-7 () Int)
(declare-fun c9-7 () Int)
(declare-fun f0-8 () Int)
(declare-fun c0-8 () Int)
(declare-fun f1-8 () Int)
(declare-fun c1-8 () Int)
(declare-fun f2-8 () Int)
(declare-fun c2-8 () Int)
(declare-fun f3-8 () Int)
(declare-fun c3-8 () Int)
(declare-fun f4-8 () Int)
(declare-fun c4-8 () Int)
(declare-fun f5-8 () Int)
(declare-fun c5-8 () Int)
(declare-fun f6-8 () Int)
(declare-fun c6-8 () Int)
(declare-fun f7-8 () Int)
(declare-fun c7-8 () Int)
(declare-fun f8-8 () Int)
(declare-fun c8-8 () Int)
(declare-fun f9-8 () Int)
(declare-fun c9-8 () Int)
(declare-fun f0-9 () Int)
(declare-fun c0-9 () Int)
(declare-fun f1-9 () Int)
(declare-fun c1-9 () Int)
(declare-fun f2-9 () Int)
(declare-fun c2-9 () Int)
(declare-fun f3-9 () Int)
(declare-fun c3-9 () Int)
(declare-fun f4-9 () Int)
(declare-fun c4-9 () Int)
(declare-fun f5-9 () Int)
(declare-fun c5-9 () Int)
(declare-fun f6-9 () Int)
(declare-fun c6-9 () Int)
(declare-fun f7-9 () Int)
(declare-fun c7-9 () Int)
(declare-fun f8-9 () Int)
(declare-fun c8-9 () Int)
(declare-fun f9-9 () Int)
(declare-fun c9-9 () Int)
(assert (or (and (> f0-0 0) (< f0-1 0) (< f0-2 0)) (and (< f0-0 0) (> f0-1 0) (< f0-2 0)) (and (< f0-0 0) (< f0-1 0) (> f0-2 0))))
(assert (or (and (> f1-0 0) (< f2-0 0) (< f3-0 0) (< f1-1 0) (< f2-1 0) (< f3-1 0)) (and (< f1-0 0) (> f2-0 0) (< f3-0 0) (< f1-1 0) (< f2-1 0) (< f3-1 0)) (and (< f1-0 0) (< f2-0 0) (> f3-0 0) (< f1-1 0) (< f2-1 0) (< f3-1 0)) (and (< f1-0 0) (< f2-0 0) (< f3-0 0) (> f1-1 0) (< f2-1 0) (< f3-1 0)) (and (< f1-0 0) (< f2-0 0) (< f3-0 0) (< f1-1 0) (> f2-1 0) (< f3-1 0)) (and (< f1-0 0) (< f2-0 0) (< f3-0 0) (< f1-1 0) (< f2-1 0) (> f3-1 0))))
(assert (or (and (> f4-0 0) (< f4-1 0) (< f4-2 0)) (and (< f4-0 0) (> f4-1 0) (< f4-2 0)) (and (< f4-0 0) (< f4-1 0) (> f4-2 0))))
(assert (or (and (> f5-0 0) (< f6-0 0) (< f5-1 0) (< f6-1 0)) (and (< f5-0 0) (> f6-0 0) (< f5-1 0) (< f6-1 0)) (and (< f5-0 0) (< f6-0 0) (> f5-1 0) (< f6-1 0)) (and (< f5-0 0) (< f6-0 0) (< f5-1 0) (> f6-1 0))))
(assert (or (and (> f7-0 0) (< f8-0 0) (< f9-0 0)) (and (< f7-0 0) (> f8-0 0) (< f9-0 0)) (and (< f7-0 0) (< f8-0 0) (> f9-0 0))))
(assert (or (and (> f7-1 0))))
(assert (or (and (> f8-1 0) (< f9-1 0) (< f8-2 0) (< f9-2 0) (< f8-3 0) (< f9-3 0)) (and (< f8-1 0) (> f9-1 0) (< f8-2 0) (< f9-2 0) (< f8-3 0) (< f9-3 0)) (and (< f8-1 0) (< f9-1 0) (> f8-2 0) (< f9-2 0) (< f8-3 0) (< f9-3 0)) (and (< f8-1 0) (< f9-1 0) (< f8-2 0) (> f9-2 0) (< f8-3 0) (< f9-3 0)) (and (< f8-1 0) (< f9-1 0) (< f8-2 0) (< f9-2 0) (> f8-3 0) (< f9-3 0)) (and (< f8-1 0) (< f9-1 0) (< f8-2 0) (< f9-2 0) (< f8-3 0) (> f9-3 0))))
(assert (or (and (> f1-2 0))))
(assert (or (and (> f2-2 0) (< f3-2 0) (< f2-3 0) (< f3-3 0) (< f2-4 0) (< f3-4 0)) (and (< f2-2 0) (> f3-2 0) (< f2-3 0) (< f3-3 0) (< f2-4 0) (< f3-4 0)) (and (< f2-2 0) (< f3-2 0) (> f2-3 0) (< f3-3 0) (< f2-4 0) (< f3-4 0)) (and (< f2-2 0) (< f3-2 0) (< f2-3 0) (> f3-3 0) (< f2-4 0) (< f3-4 0)) (and (< f2-2 0) (< f3-2 0) (< f2-3 0) (< f3-3 0) (> f2-4 0) (< f3-4 0)) (and (< f2-2 0) (< f3-2 0) (< f2-3 0) (< f3-3 0) (< f2-4 0) (> f3-4 0))))
(assert (or (and (> f5-2 0) (< f6-2 0) (< f7-2 0) (< f5-3 0) (< f6-3 0) (< f7-3 0)) (and (< f5-2 0) (> f6-2 0) (< f7-2 0) (< f5-3 0) (< f6-3 0) (< f7-3 0)) (and (< f5-2 0) (< f6-2 0) (> f7-2 0) (< f5-3 0) (< f6-3 0) (< f7-3 0)) (and (< f5-2 0) (< f6-2 0) (< f7-2 0) (> f5-3 0) (< f6-3 0) (< f7-3 0)) (and (< f5-2 0) (< f6-2 0) (< f7-2 0) (< f5-3 0) (> f6-3 0) (< f7-3 0)) (and (< f5-2 0) (< f6-2 0) (< f7-2 0) (< f5-3 0) (< f6-3 0) (> f7-3 0))))
(assert (or (and (> f0-3 0) (< f1-3 0) (< f0-4 0) (< f1-4 0)) (and (< f0-3 0) (> f1-3 0) (< f0-4 0) (< f1-4 0)) (and (< f0-3 0) (< f1-3 0) (> f0-4 0) (< f1-4 0)) (and (< f0-3 0) (< f1-3 0) (< f0-4 0) (> f1-4 0))))
(assert (or (and (> f4-3 0))))
(assert (or (and (> f4-4 0) (< f5-4 0) (< f4-5 0) (< f5-5 0)) (and (< f4-4 0) (> f5-4 0) (< f4-5 0) (< f5-5 0)) (and (< f4-4 0) (< f5-4 0) (> f4-5 0) (< f5-5 0)) (and (< f4-4 0) (< f5-4 0) (< f4-5 0) (> f5-5 0))))
(assert (or (and (> f6-4 0))))
(assert (or (and (> f7-4 0) (< f8-4 0) (< f9-4 0)) (and (< f7-4 0) (> f8-4 0) (< f9-4 0)) (and (< f7-4 0) (< f8-4 0) (> f9-4 0))))
(assert (or (and (> f0-5 0) (< f1-5 0) (< f2-5 0)) (and (< f0-5 0) (> f1-5 0) (< f2-5 0)) (and (< f0-5 0) (< f1-5 0) (> f2-5 0))))
(assert (or (and (> f3-5 0))))
(assert (or (and (> f6-5 0) (< f7-5 0) (< f6-6 0) (< f7-6 0) (< f6-7 0) (< f7-7 0)) (and (< f6-5 0) (> f7-5 0) (< f6-6 0) (< f7-6 0) (< f6-7 0) (< f7-7 0)) (and (< f6-5 0) (< f7-5 0) (> f6-6 0) (< f7-6 0) (< f6-7 0) (< f7-7 0)) (and (< f6-5 0) (< f7-5 0) (< f6-6 0) (> f7-6 0) (< f6-7 0) (< f7-7 0)) (and (< f6-5 0) (< f7-5 0) (< f6-6 0) (< f7-6 0) (> f6-7 0) (< f7-7 0)) (and (< f6-5 0) (< f7-5 0) (< f6-6 0) (< f7-6 0) (< f6-7 0) (> f7-7 0))))
(assert (or (and (> f8-5 0) (< f9-5 0) (< f8-6 0) (< f9-6 0)) (and (< f8-5 0) (> f9-5 0) (< f8-6 0) (< f9-6 0)) (and (< f8-5 0) (< f9-5 0) (> f8-6 0) (< f9-6 0)) (and (< f8-5 0) (< f9-5 0) (< f8-6 0) (> f9-6 0))))
(assert (or (and (> f0-6 0) (< f1-6 0) (< f0-7 0) (< f1-7 0) (< f0-8 0) (< f1-8 0)) (and (< f0-6 0) (> f1-6 0) (< f0-7 0) (< f1-7 0) (< f0-8 0) (< f1-8 0)) (and (< f0-6 0) (< f1-6 0) (> f0-7 0) (< f1-7 0) (< f0-8 0) (< f1-8 0)) (and (< f0-6 0) (< f1-6 0) (< f0-7 0) (> f1-7 0) (< f0-8 0) (< f1-8 0)) (and (< f0-6 0) (< f1-6 0) (< f0-7 0) (< f1-7 0) (> f0-8 0) (< f1-8 0)) (and (< f0-6 0) (< f1-6 0) (< f0-7 0) (< f1-7 0) (< f0-8 0) (> f1-8 0))))
(assert (or (and (> f2-6 0) (< f3-6 0) (< f4-6 0) (< f2-7 0) (< f3-7 0) (< f4-7 0)) (and (< f2-6 0) (> f3-6 0) (< f4-6 0) (< f2-7 0) (< f3-7 0) (< f4-7 0)) (and (< f2-6 0) (< f3-6 0) (> f4-6 0) (< f2-7 0) (< f3-7 0) (< f4-7 0)) (and (< f2-6 0) (< f3-6 0) (< f4-6 0) (> f2-7 0) (< f3-7 0) (< f4-7 0)) (and (< f2-6 0) (< f3-6 0) (< f4-6 0) (< f2-7 0) (> f3-7 0) (< f4-7 0)) (and (< f2-6 0) (< f3-6 0) (< f4-6 0) (< f2-7 0) (< f3-7 0) (> f4-7 0))))
(assert (or (and (> f5-6 0))))
(assert (or (and (> f5-7 0) (< f5-8 0) (< f5-9 0)) (and (< f5-7 0) (> f5-8 0) (< f5-9 0)) (and (< f5-7 0) (< f5-8 0) (> f5-9 0))))
(assert (or (and (> f8-7 0))))
(assert (or (and (> f9-7 0) (< f9-8 0) (< f9-9 0)) (and (< f9-7 0) (> f9-8 0) (< f9-9 0)) (and (< f9-7 0) (< f9-8 0) (> f9-9 0))))
(assert (or (and (> f2-8 0))))
(assert (or (and (> f3-8 0) (< f4-8 0) (< f3-9 0) (< f4-9 0)) (and (< f3-8 0) (> f4-8 0) (< f3-9 0) (< f4-9 0)) (and (< f3-8 0) (< f4-8 0) (> f3-9 0) (< f4-9 0)) (and (< f3-8 0) (< f4-8 0) (< f3-9 0) (> f4-9 0))))
(assert (or (and (> f6-8 0) (< f7-8 0) (< f8-8 0) (< f6-9 0) (< f7-9 0) (< f8-9 0)) (and (< f6-8 0) (> f7-8 0) (< f8-8 0) (< f6-9 0) (< f7-9 0) (< f8-9 0)) (and (< f6-8 0) (< f7-8 0) (> f8-8 0) (< f6-9 0) (< f7-9 0) (< f8-9 0)) (and (< f6-8 0) (< f7-8 0) (< f8-8 0) (> f6-9 0) (< f7-9 0) (< f8-9 0)) (and (< f6-8 0) (< f7-8 0) (< f8-8 0) (< f6-9 0) (> f7-9 0) (< f8-9 0)) (and (< f6-8 0) (< f7-8 0) (< f8-8 0) (< f6-9 0) (< f7-9 0) (> f8-9 0))))
(assert (or (and (> f0-9 0) (< f1-9 0) (< f2-9 0)) (and (< f0-9 0) (> f1-9 0) (< f2-9 0)) (and (< f0-9 0) (< f1-9 0) (> f2-9 0))))
(assert (and (= c4-0 1) (= c7-0 2) (= c5-1 3) (= c6-1 4) (= c9-1 5) (= c3-2 6) (= c6-2 7) (= c8-2 8) (= c2-3 9) (= c1-4 10) (= c2-4 11) (= c4-4 12) (= c5-4 13) (= c7-4 14) (= c9-4 15) (= c0-5 16) (= c4-5 17) (= c5-5 18) (= c3-6 19) (= c8-6 20) (= c5-7 21) (= c4-8 22) (= c5-8 23) (= c7-8 24) (= c1-9 25) (= c2-9 26) (= c4-9 27) (= c5-9 28) (= c7-9 29)))
(assert (or (and (= c5-0 c4-0) (= f5-0 c4-0)) (and (= c3-0 c4-0) (= f3-0 c4-0)) (and (= c4-1 c4-0) (= f4-1 c4-0))))
(assert (or (and (= c8-0 c7-0) (= f8-0 c7-0)) (and (= c6-0 c7-0) (= f6-0 c7-0)) (and (= c7-1 c7-0) (= f7-1 c7-0))))
(assert (or (and (= c4-1 c5-1) (= c3-1 c5-1) (= f3-1 c5-1)) (and (= c5-2 c5-1) (= c5-3 c5-1) (= f5-3 c5-1))))
(assert (or (and (= c7-1 c6-1) (= f7-1 c6-1)) (and (= c6-0 c6-1) (= f6-0 c6-1))))
(assert (or (and (= c8-1 c9-1) (= c7-1 c9-1) (= f7-1 c9-1)) (and (= c9-2 c9-1) (= c9-3 c9-1) (= f9-3 c9-1))))
(assert (or (and (= c4-2 c3-2) (= c5-2 c3-2) (= f5-2 c3-2)) (and (= c2-2 c3-2) (= c1-2 c3-2) (= f1-2 c3-2)) (and (= c3-3 c3-2) (= c3-4 c3-2) (= f3-4 c3-2)) (and (= c3-1 c3-2) (= c3-0 c3-2) (= f3-0 c3-2))))
(assert (or (and (= c5-2 c6-2) (= c4-2 c6-2) (= f4-2 c6-2)) (and (= c6-3 c6-2) (= c6-4 c6-2) (= f6-4 c6-2))))
(assert (or (= f8-2 c8-2) (and (= c9-2 c8-2) (= f9-2 c8-2)) (and (= c7-2 c8-2) (= f7-2 c8-2)) (and (= c8-3 c8-2) (= f8-3 c8-2)) (and (= c8-1 c8-2) (= f8-1 c8-2)) (and (= c8-3 c8-2) (= c8-4 c8-2) (= f8-4 c8-2)) (and (= c8-1 c8-2) (= c8-0 c8-2) (= f8-0 c8-2)) (and (= c8-3 c8-2) (= c8-4 c8-2) (= c8-5 c8-2) (= f8-5 c8-2))))
(assert (or (and (= c3-3 c2-3) (= f3-3 c2-3)) (and (= c1-3 c2-3) (= f1-3 c2-3)) (and (= c2-2 c2-3) (= f2-2 c2-3))))
(assert (or (= f1-4 c1-4)))
(assert (or (and (= c3-4 c2-4) (= f3-4 c2-4)) (and (= c2-5 c2-4) (= f2-5 c2-4))))
(assert (or (= f4-4 c4-4) (and (= c3-4 c4-4) (= f3-4 c4-4)) (and (= c4-3 c4-4) (= f4-3 c4-4)) (and (= c4-3 c4-4) (= c4-2 c4-4) (= f4-2 c4-4)) (and (= c4-3 c4-4) (= c4-2 c4-4) (= c4-1 c4-4) (= f4-1 c4-4))))
(assert (or (= f5-4 c5-4) (and (= c6-4 c5-4) (= f6-4 c5-4)) (and (= c5-3 c5-4) (= f5-3 c5-4)) (and (= c5-3 c5-4) (= c5-2 c5-4) (= f5-2 c5-4))))
(assert (or (and (= c7-5 c7-4) (= c7-6 c7-4) (= f7-6 c7-4)) (and (= c7-3 c7-4) (= c7-2 c7-4) (= f7-2 c7-4))))
(assert (or (and (= c9-5 c9-4) (= c9-6 c9-4) (= f9-6 c9-4)) (and (= c9-3 c9-4) (= c9-2 c9-4) (= f9-2 c9-4))))
(assert (or (and (= c1-5 c0-5) (= c2-5 c0-5) (= c3-5 c0-5) (= f3-5 c0-5)) (and (= c0-6 c0-5) (= c0-7 c0-5) (= c0-8 c0-5) (= f0-8 c0-5)) (and (= c0-4 c0-5) (= c0-3 c0-5) (= c0-2 c0-5) (= f0-2 c0-5))))
(assert (or (= f4-5 c4-5) (and (= c3-5 c4-5) (= f3-5 c4-5)) (and (= c4-6 c4-5) (= f4-6 c4-5)) (and (= c3-5 c4-5) (= c2-5 c4-5) (= f2-5 c4-5)) (and (= c4-6 c4-5) (= c4-7 c4-5) (= f4-7 c4-5)) (and (= c3-5 c4-5) (= c2-5 c4-5) (= c1-5 c4-5) (= f1-5 c4-5))))
(assert (or (= f5-5 c5-5) (and (= c6-5 c5-5) (= f6-5 c5-5)) (and (= c5-6 c5-5) (= f5-6 c5-5)) (and (= c6-5 c5-5) (= c7-5 c5-5) (= f7-5 c5-5)) (and (= c6-5 c5-5) (= c7-5 c5-5) (= c8-5 c5-5) (= f8-5 c5-5)) (and (= c6-5 c5-5) (= c7-5 c5-5) (= c8-5 c5-5) (= c9-5 c5-5) (= f9-5 c5-5))))
(assert (or (and (= c4-6 c3-6) (= c5-6 c3-6) (= f5-6 c3-6)) (and (= c2-6 c3-6) (= c1-6 c3-6) (= f1-6 c3-6)) (and (= c3-7 c3-6) (= c3-8 c3-6) (= f3-8 c3-6)) (and (= c3-5 c3-6) (= c3-4 c3-6) (= f3-4 c3-6))))
(assert (or (= f8-6 c8-6) (and (= c9-6 c8-6) (= f9-6 c8-6)) (and (= c7-6 c8-6) (= f7-6 c8-6)) (and (= c8-7 c8-6) (= f8-7 c8-6)) (and (= c8-5 c8-6) (= f8-5 c8-6)) (and (= c7-6 c8-6) (= c6-6 c8-6) (= f6-6 c8-6)) (and (= c8-7 c8-6) (= c8-8 c8-6) (= f8-8 c8-6)) (and (= c8-5 c8-6) (= c8-4 c8-6) (= f8-4 c8-6)) (and (= c7-6 c8-6) (= c6-6 c8-6) (= c5-6 c8-6) (= f5-6 c8-6)) (and (= c8-7 c8-6) (= c8-8 c8-6) (= c8-9 c8-6) (= f8-9 c8-6)) (and (= c8-5 c8-6) (= c8-4 c8-6) (= c8-3 c8-6) (= f8-3 c8-6)) (and (= c7-6 c8-6) (= c6-6 c8-6) (= c5-6 c8-6) (= c4-6 c8-6) (= f4-6 c8-6))))
(assert (or (and (= c6-7 c5-7) (= f6-7 c5-7)) (and (= c4-7 c5-7) (= f4-7 c5-7)) (and (= c5-6 c5-7) (= f5-6 c5-7))))
(assert (or (and (= c3-8 c4-8) (= c2-8 c4-8) (= f2-8 c4-8)) (and (= c4-7 c4-8) (= c4-6 c4-8) (= f4-6 c4-8))))
(assert (or (and (= c6-8 c5-8) (= f6-8 c5-8))))
(assert (or (and (= c8-8 c7-8) (= c9-8 c7-8) (= f9-8 c7-8)) (and (= c7-7 c7-8) (= c7-6 c7-8) (= f7-6 c7-8))))
(assert (or (and (= c1-8 c1-9) (= c1-7 c1-9) (= f1-7 c1-9))))
(assert (or (= f2-9 c2-9) (and (= c3-9 c2-9) (= f3-9 c2-9)) (and (= c2-8 c2-9) (= f2-8 c2-9)) (and (= c2-8 c2-9) (= c2-7 c2-9) (= f2-7 c2-9)) (and (= c2-8 c2-9) (= c2-7 c2-9) (= c2-6 c2-9) (= f2-6 c2-9)) (and (= c2-8 c2-9) (= c2-7 c2-9) (= c2-6 c2-9) (= c2-5 c2-9) (= f2-5 c2-9))))
(assert (or (and (= c3-9 c4-9) (= f3-9 c4-9))))
(assert (or (= f5-9 c5-9) (and (= c6-9 c5-9) (= f6-9 c5-9))))
(assert (or (= f7-9 c7-9) (and (= c8-9 c7-9) (= f8-9 c7-9)) (and (= c6-9 c7-9) (= f6-9 c7-9)) (and (= c8-9 c7-9) (= c9-9 c7-9) (= f9-9 c7-9))))
(check-sat)
(get-value (f0-0))
(get-value (f1-0))
(get-value (f2-0))
(get-value (f3-0))
(get-value (f4-0))
(get-value (f5-0))
(get-value (f6-0))
(get-value (f7-0))
(get-value (f8-0))
(get-value (f9-0))
(get-value (f0-1))
(get-value (f1-1))
(get-value (f2-1))
(get-value (f3-1))
(get-value (f4-1))
(get-value (f5-1))
(get-value (f6-1))
(get-value (f7-1))
(get-value (f8-1))
(get-value (f9-1))
(get-value (f0-2))
(get-value (f1-2))
(get-value (f2-2))
(get-value (f3-2))
(get-value (f4-2))
(get-value (f5-2))
(get-value (f6-2))
(get-value (f7-2))
(get-value (f8-2))
(get-value (f9-2))
(get-value (f0-3))
(get-value (f1-3))
(get-value (f2-3))
(get-value (f3-3))
(get-value (f4-3))
(get-value (f5-3))
(get-value (f6-3))
(get-value (f7-3))
(get-value (f8-3))
(get-value (f9-3))
(get-value (f0-4))
(get-value (f1-4))
(get-value (f2-4))
(get-value (f3-4))
(get-value (f4-4))
(get-value (f5-4))
(get-value (f6-4))
(get-value (f7-4))
(get-value (f8-4))
(get-value (f9-4))
(get-value (f0-5))
(get-value (f1-5))
(get-value (f2-5))
(get-value (f3-5))
(get-value (f4-5))
(get-value (f5-5))
(get-value (f6-5))
(get-value (f7-5))
(get-value (f8-5))
(get-value (f9-5))
(get-value (f0-6))
(get-value (f1-6))
(get-value (f2-6))
(get-value (f3-6))
(get-value (f4-6))
(get-value (f5-6))
(get-value (f6-6))
(get-value (f7-6))
(get-value (f8-6))
(get-value (f9-6))
(get-value (f0-7))
(get-value (f1-7))
(get-value (f2-7))
(get-value (f3-7))
(get-value (f4-7))
(get-value (f5-7))
(get-value (f6-7))
(get-value (f7-7))
(get-value (f8-7))
(get-value (f9-7))
(get-value (f0-8))
(get-value (f1-8))
(get-value (f2-8))
(get-value (f3-8))
(get-value (f4-8))
(get-value (f5-8))
(get-value (f6-8))
(get-value (f7-8))
(get-value (f8-8))
(get-value (f9-8))
(get-value (f0-9))
(get-value (f1-9))
(get-value (f2-9))
(get-value (f3-9))
(get-value (f4-9))
(get-value (f5-9))
(get-value (f6-9))
(get-value (f7-9))
(get-value (f8-9))
(get-value (f9-9))
